NAME: ACTUAL_TOURS/amz1754
TYPE: TOUR
COMMENT: RouteID_bb5b846e-9ea7-4a92-894a-7ceda3df759d
DIMENSION: 114
TOUR_SECTION
72
74
91
8
59
22
69
106
42
15
93
96
56
76
90
111
94
103
48
14
61
6
45
33
102
53
67
60
49
38
79
88
19
83
82
108
85
87
44
55
109
104
58
20
98
105
23
110
65
27
66
89
52
78
101
36
84
64
114
28
1
92
24
81
26
3
13
62
4
77
18
100
37
9
31
11
73
80
57
35
32
51
7
34
86
50
21
107
47
43
10
46
40
68
95
29
2
17
113
112
71
39
16
75
5
97
41
30
25
99
54
12
63
70
-1
EOF
